data/solutions/planning/wellformed/moderate/weighting/wellformed_moderate_instance13_gurobi.sol
Elapsed time: 0.08
Nodes explored: 93
Nodes left: 2
Relative gap: 0.0
Upper bound: 5256.0
Lower bound: 5256
C[0]=751.0
C[1]=751.0
C[2]=750.0
y[0]=2
y[1]=1
y[2]=2
y[3]=1
y[4]=2
y[5]=2
y[6]=0
y[7]=2
y[8]=0
y[9]=2
y[10]=2
y[11]=1
y[12]=1
y[13]=1
y[14]=0
y[15]=0
y[16]=0
y[17]=0
y[18]=0
y[19]=2
y[20]=1
y[21]=0
y[22]=2
y[23]=0
y[24]=0
y[25]=2
y[26]=2
y[27]=2
y[28]=1
y[29]=1
y[30]=1
y[31]=1
y[32]=0
y[33]=0
y[34]=1
y[35]=2
y[36]=2
y[37]=2
y[38]=2
y[39]=2
